
c turning on binary mode checking

c parsing input formula with 258 variables and 1633656 clauses

c finished parsing, read 384672 bytes from proof file

c detected empty clause; start verification via backward checking

c 6841 of 1633656 clauses in core                            

c 1607 of 2374 lemmas in core using 32964 resolution steps

c 0 RAT lemmas in core; 188 redundant literals in core lemmas

s VERIFIED

c verification time: 2.057 seconds
